p cnf 25 74
19 20 21 0
22 23 24 0
-3 -12 0
-3 -16 0
-3 -19 0
-3 -22 0
-12 -16 0
-12 -19 0
-12 -22 0
-16 -19 0
-16 -22 0
-19 -22 0
-1 -4 0
-1 -7 0
-1 -9 0
-1 -14 0
-1 -17 0
-1 -20 0
-1 -23 0
-4 -7 0
-4 -9 0
-4 -14 0
-4 -17 0
-4 -20 0
-4 -23 0
-7 -9 0
-7 -14 0
-7 -17 0
-7 -20 0
-7 -23 0
-9 -14 0
-9 -17 0
-9 -20 0
-9 -23 0
-14 -17 0
-14 -20 0
-14 -23 0
-17 -20 0
-17 -23 0
-20 -23 0
-5 -10 0
-5 -13 0
-5 -15 0
-5 -18 0
-5 -21 0
-5 -24 0
-5 -25 0
-10 -13 0
-10 -15 0
-10 -18 0
-10 -21 0
-10 -24 0
-10 -25 0
-13 -15 0
-13 -18 0
-13 -21 0
-13 -24 0
-13 -25 0
-15 -18 0
-15 -21 0
-15 -24 0
-15 -25 0
-18 -21 0
-18 -24 0
-18 -25 0
-21 -24 0
-21 -25 0
-24 -25 0
-2 -6 0
-2 -8 0
-2 -11 0
-6 -8 0
-6 -11 0
-8 -11 0
